p edge 250 3134
e 0 20
e 0 27
e 0 33
e 0 34
e 0 52
e 0 53
e 0 55
e 0 101
e 0 110
e 0 125
e 0 143
e 0 145
e 0 147
e 0 157
e 0 168
e 0 175
e 0 183
e 0 193
e 0 195
e 0 207
e 0 212
e 0 218
e 0 220
e 0 226
e 0 236
e 0 239
e 1 46
e 1 68
e 1 79
e 1 106
e 1 128
e 1 153
e 1 155
e 1 158
e 1 169
e 1 183
e 1 187
e 1 189
e 1 198
e 1 213
e 1 215
e 1 227
e 1 241
e 1 243
e 1 245
e 2 8
e 2 16
e 2 25
e 2 35
e 2 40
e 2 43
e 2 44
e 2 47
e 2 48
e 2 65
e 2 69
e 2 78
e 2 81
e 2 101
e 2 103
e 2 104
e 2 115
e 2 133
e 2 149
e 2 151
e 2 155
e 2 160
e 2 161
e 2 162
e 2 167
e 2 196
e 2 211
e 2 222
e 2 231
e 2 234
e 2 241
e 3 8
e 3 33
e 3 35
e 3 38
e 3 71
e 3 74
e 3 77
e 3 84
e 3 112
e 3 121
e 3 124
e 3 135
e 3 147
e 3 148
e 3 198
e 3 213
e 3 226
e 3 240
e 4 23
e 4 25
e 4 34
e 4 36
e 4 39
e 4 51
e 4 79
e 4 83
e 4 98
e 4 103
e 4 112
e 4 119
e 4 122
e 4 125
e 4 127
e 4 146
e 4 157
e 4 173
e 4 178
e 4 182
e 4 195
e 4 233
e 4 245
e 4 248
e 5 6
e 5 8
e 5 11
e 5 13
e 5 15
e 5 48
e 5 54
e 5 56
e 5 59
e 5 82
e 5 91
e 5 95
e 5 96
e 5 106
e 5 112
e 5 113
e 5 126
e 5 146
e 5 163
e 5 172
e 5 173
e 5 175
e 5 182
e 5 191
e 5 192
e 5 202
e 5 214
e 5 216
e 5 241
e 6 20
e 6 26
e 6 40
e 6 42
e 6 71
e 6 79
e 6 107
e 6 108
e 6 134
e 6 136
e 6 143
e 6 144
e 6 185
e 6 205
e 6 228
e 6 240
e 6 242
e 6 245
e 7 8
e 7 47
e 7 53
e 7 59
e 7 67
e 7 84
e 7 93
e 7 95
e 7 97
e 7 105
e 7 126
e 7 127
e 7 136
e 7 139
e 7 140
e 7 142
e 7 163
e 7 164
e 7 170
e 7 174
e 7 180
e 7 207
e 7 209
e 7 216
e 7 217
e 7 229
e 8 17
e 8 32
e 8 53
e 8 57
e 8 65
e 8 69
e 8 73
e 8 78
e 8 83
e 8 87
e 8 91
e 8 106
e 8 127
e 8 135
e 8 139
e 8 149
e 8 150
e 8 156
e 8 167
e 8 172
e 8 182
e 8 184
e 8 189
e 8 194
e 8 199
e 8 204
e 8 209
e 8 211
e 8 223
e 8 224
e 8 226
e 8 229
e 8 234
e 8 238
e 8 246
e 9 15
e 9 25
e 9 46
e 9 48
e 9 49
e 9 60
e 9 113
e 9 140
e 9 143
e 9 167
e 9 173
e 9 179
e 9 180
e 9 184
e 9 185
e 9 192
e 9 195
e 9 198
e 9 218
e 9 221
e 9 248
e 10 13
e 10 15
e 10 23
e 10 25
e 10 27
e 10 51
e 10 69
e 10 93
e 10 95
e 10 99
e 10 104
e 10 111
e 10 126
e 10 128
e 10 135
e 10 158
e 10 172
e 10 178
e 10 214
e 11 15
e 11 17
e 11 21
e 11 33
e 11 34
e 11 42
e 11 43
e 11 44
e 11 61
e 11 64
e 11 95
e 11 120
e 11 123
e 11 144
e 11 147
e 11 162
e 11 166
e 11 167
e 11 173
e 11 179
e 11 207
e 11 228
e 11 235
e 11 236
e 11 238
e 12 20
e 12 26
e 12 29
e 12 37
e 12 42
e 12 50
e 12 65
e 12 67
e 12 72
e 12 76
e 12 85
e 12 88
e 12 101
e 12 105
e 12 106
e 12 115
e 12 121
e 12 123
e 12 139
e 12 140
e 12 150
e 12 156
e 12 167
e 12 180
e 12 186
e 12 195
e 12 212
e 12 233
e 12 241
e 12 248
e 13 21
e 13 30
e 13 51
e 13 57
e 13 70
e 13 76
e 13 79
e 13 83
e 13 85
e 13 93
e 13 97
e 13 107
e 13 112
e 13 119
e 13 138
e 13 140
e 13 141
e 13 144
e 13 147
e 13 148
e 13 166
e 13 171
e 13 192
e 13 208
e 13 213
e 13 220
e 13 242
e 14 28
e 14 29
e 14 42
e 14 45
e 14 49
e 14 68
e 14 87
e 14 91
e 14 93
e 14 104
e 14 109
e 14 114
e 14 119
e 14 121
e 14 123
e 14 141
e 14 159
e 14 173
e 14 183
e 14 188
e 14 197
e 14 209
e 14 214
e 14 221
e 14 235
e 15 32
e 15 35
e 15 37
e 15 58
e 15 85
e 15 93
e 15 96
e 15 98
e 15 103
e 15 107
e 15 110
e 15 125
e 15 138
e 15 141
e 15 142
e 15 145
e 15 158
e 15 162
e 15 169
e 15 170
e 15 176
e 15 177
e 15 182
e 15 188
e 15 193
e 15 247
e 16 18
e 16 23
e 16 25
e 16 38
e 16 42
e 16 51
e 16 56
e 16 63
e 16 70
e 16 73
e 16 86
e 16 88
e 16 91
e 16 95
e 16 97
e 16 139
e 16 141
e 16 165
e 16 167
e 16 179
e 16 185
e 16 193
e 16 211
e 16 213
e 16 245
e 17 23
e 17 28
e 17 58
e 17 65
e 17 70
e 17 73
e 17 81
e 17 84
e 17 99
e 17 101
e 17 106
e 17 112
e 17 115
e 17 124
e 17 135
e 17 152
e 17 169
e 17 192
e 17 201
e 17 209
e 17 211
e 17 220
e 17 221
e 17 223
e 17 227
e 17 237
e 17 238
e 17 241
e 17 242
e 17 249
e 18 28
e 18 32
e 18 69
e 18 72
e 18 93
e 18 98
e 18 103
e 18 112
e 18 117
e 18 128
e 18 132
e 18 140
e 18 142
e 18 148
e 18 199
e 18 202
e 18 222
e 18 227
e 18 230
e 18 238
e 18 239
e 18 243
e 19 27
e 19 35
e 19 36
e 19 38
e 19 48
e 19 82
e 19 88
e 19 96
e 19 107
e 19 110
e 19 116
e 19 119
e 19 123
e 19 124
e 19 143
e 19 144
e 19 147
e 19 152
e 19 171
e 19 175
e 19 176
e 19 183
e 19 192
e 19 195
e 19 199
e 19 202
e 19 206
e 19 235
e 19 249
e 20 29
e 20 36
e 20 52
e 20 53
e 20 67
e 20 72
e 20 76
e 20 78
e 20 98
e 20 109
e 20 148
e 20 149
e 20 150
e 20 172
e 20 176
e 20 200
e 20 201
e 20 202
e 20 228
e 20 234
e 20 240
e 21 30
e 21 37
e 21 50
e 21 58
e 21 92
e 21 119
e 21 133
e 21 155
e 21 160
e 21 165
e 21 166
e 21 178
e 21 185
e 21 209
e 21 217
e 21 221
e 21 222
e 21 232
e 21 233
e 21 243
e 22 31
e 22 42
e 22 47
e 22 68
e 22 77
e 22 80
e 22 101
e 22 108
e 22 123
e 22 130
e 22 132
e 22 136
e 22 146
e 22 153
e 22 155
e 22 162
e 22 174
e 22 191
e 22 196
e 22 209
e 22 212
e 22 219
e 22 232
e 22 236
e 22 239
e 23 31
e 23 40
e 23 54
e 23 73
e 23 74
e 23 79
e 23 86
e 23 88
e 23 93
e 23 95
e 23 108
e 23 123
e 23 124
e 23 140
e 23 161
e 23 170
e 23 171
e 23 188
e 23 194
e 23 206
e 23 211
e 23 216
e 23 226
e 23 231
e 23 238
e 24 25
e 24 26
e 24 27
e 24 38
e 24 57
e 24 61
e 24 68
e 24 87
e 24 102
e 24 116
e 24 118
e 24 119
e 24 135
e 24 136
e 24 164
e 24 167
e 24 193
e 24 205
e 24 215
e 24 217
e 24 220
e 24 227
e 24 246
e 24 248
e 24 249
e 25 34
e 25 38
e 25 41
e 25 45
e 25 51
e 25 55
e 25 80
e 25 93
e 25 98
e 25 102
e 25 103
e 25 138
e 25 145
e 25 157
e 25 166
e 25 206
e 25 220
e 25 225
e 25 243
e 25 247
e 26 40
e 26 41
e 26 56
e 26 59
e 26 65
e 26 75
e 26 80
e 26 91
e 26 94
e 26 102
e 26 118
e 26 123
e 26 126
e 26 128
e 26 132
e 26 144
e 26 151
e 26 160
e 26 165
e 26 167
e 26 170
e 26 189
e 26 229
e 26 231
e 26 241
e 26 242
e 27 39
e 27 43
e 27 56
e 27 67
e 27 72
e 27 82
e 27 90
e 27 101
e 27 103
e 27 104
e 27 106
e 27 128
e 27 130
e 27 136
e 27 137
e 27 161
e 27 168
e 27 176
e 27 179
e 27 184
e 27 214
e 27 217
e 27 222
e 27 224
e 27 227
e 27 235
e 27 242
e 28 42
e 28 44
e 28 59
e 28 66
e 28 72
e 28 74
e 28 77
e 28 81
e 28 122
e 28 226
e 28 227
e 28 249
e 29 42
e 29 45
e 29 51
e 29 61
e 29 91
e 29 99
e 29 183
e 29 186
e 29 205
e 29 217
e 29 225
e 29 238
e 29 246
e 30 31
e 30 36
e 30 37
e 30 43
e 30 44
e 30 45
e 30 47
e 30 58
e 30 64
e 30 106
e 30 117
e 30 121
e 30 125
e 30 155
e 30 156
e 30 160
e 30 162
e 30 172
e 30 176
e 30 179
e 30 183
e 30 185
e 30 186
e 30 196
e 30 238
e 31 40
e 31 46
e 31 52
e 31 57
e 31 59
e 31 64
e 31 67
e 31 68
e 31 82
e 31 96
e 31 98
e 31 105
e 31 111
e 31 112
e 31 119
e 31 122
e 31 130
e 31 160
e 31 162
e 31 190
e 31 199
e 31 210
e 31 213
e 31 240
e 31 241
e 32 33
e 32 39
e 32 44
e 32 46
e 32 61
e 32 75
e 32 88
e 32 128
e 32 142
e 32 148
e 32 153
e 32 156
e 32 205
e 32 212
e 32 213
e 32 232
e 32 239
e 32 241
e 33 47
e 33 48
e 33 49
e 33 75
e 33 86
e 33 88
e 33 92
e 33 93
e 33 97
e 33 102
e 33 114
e 33 125
e 33 135
e 33 148
e 33 157
e 33 166
e 33 182
e 33 184
e 33 191
e 33 198
e 33 220
e 33 221
e 33 226
e 33 231
e 33 232
e 33 233
e 33 243
e 34 47
e 34 59
e 34 76
e 34 89
e 34 90
e 34 92
e 34 98
e 34 101
e 34 103
e 34 108
e 34 125
e 34 139
e 34 145
e 34 166
e 34 174
e 34 198
e 34 211
e 34 219
e 34 224
e 35 66
e 35 71
e 35 74
e 35 77
e 35 85
e 35 96
e 35 108
e 35 147
e 35 165
e 35 169
e 35 185
e 35 188
e 35 195
e 35 208
e 35 213
e 35 228
e 35 232
e 35 237
e 35 238
e 35 239
e 36 39
e 36 44
e 36 56
e 36 57
e 36 86
e 36 90
e 36 101
e 36 102
e 36 103
e 36 105
e 36 106
e 36 117
e 36 136
e 36 139
e 36 159
e 36 178
e 36 179
e 36 194
e 36 197
e 36 208
e 36 220
e 36 246
e 37 62
e 37 118
e 37 129
e 37 160
e 37 162
e 37 171
e 37 177
e 37 179
e 37 199
e 37 204
e 37 212
e 37 223
e 37 224
e 37 233
e 37 249
e 38 43
e 38 51
e 38 52
e 38 65
e 38 107
e 38 109
e 38 116
e 38 120
e 38 143
e 38 154
e 38 162
e 38 166
e 38 169
e 38 174
e 38 182
e 38 183
e 38 184
e 38 185
e 38 203
e 39 41
e 39 48
e 39 68
e 39 86
e 39 91
e 39 103
e 39 106
e 39 115
e 39 122
e 39 127
e 39 133
e 39 144
e 39 147
e 39 185
e 39 194
e 39 213
e 39 224
e 39 234
e 39 237
e 39 246
e 40 41
e 40 53
e 40 78
e 40 88
e 40 109
e 40 116
e 40 119
e 40 127
e 40 152
e 40 155
e 40 159
e 40 166
e 40 206
e 40 208
e 40 218
e 40 231
e 40 242
e 40 246
e 41 43
e 41 44
e 41 65
e 41 129
e 41 134
e 41 135
e 41 147
e 41 162
e 41 166
e 41 178
e 41 181
e 41 185
e 41 200
e 41 208
e 41 215
e 41 225
e 41 228
e 41 248
e 42 45
e 42 59
e 42 68
e 42 73
e 42 84
e 42 90
e 42 92
e 42 115
e 42 117
e 42 119
e 42 122
e 42 124
e 42 126
e 42 132
e 42 158
e 42 171
e 42 180
e 42 188
e 42 192
e 42 200
e 42 202
e 42 205
e 42 213
e 42 218
e 42 221
e 42 244
e 43 60
e 43 77
e 43 103
e 43 139
e 43 142
e 43 149
e 43 153
e 43 160
e 43 163
e 43 170
e 43 173
e 43 178
e 43 183
e 43 190
e 43 191
e 43 204
e 43 220
e 43 244
e 43 246
e 44 47
e 44 61
e 44 66
e 44 68
e 44 75
e 44 77
e 44 79
e 44 85
e 44 106
e 44 124
e 44 129
e 44 137
e 44 152
e 44 153
e 44 162
e 44 174
e 44 176
e 44 202
e 44 218
e 44 219
e 44 222
e 44 225
e 44 249
e 45 74
e 45 88
e 45 97
e 45 101
e 45 103
e 45 107
e 45 108
e 45 116
e 45 125
e 45 132
e 45 139
e 45 142
e 45 147
e 45 148
e 45 150
e 45 155
e 45 166
e 45 170
e 45 190
e 45 199
e 45 206
e 45 210
e 45 226
e 45 244
e 45 246
e 45 247
e 46 66
e 46 85
e 46 98
e 46 99
e 46 103
e 46 130
e 46 137
e 46 140
e 46 146
e 46 150
e 46 152
e 46 163
e 46 169
e 46 171
e 46 193
e 46 197
e 46 202
e 46 208
e 46 213
e 46 228
e 47 52
e 47 63
e 47 70
e 47 71
e 47 75
e 47 81
e 47 85
e 47 88
e 47 102
e 47 110
e 47 112
e 47 120
e 47 121
e 47 129
e 47 157
e 47 170
e 47 193
e 47 195
e 47 202
e 47 209
e 47 210
e 47 221
e 47 225
e 47 233
e 47 242
e 47 245
e 48 50
e 48 58
e 48 71
e 48 75
e 48 81
e 48 86
e 48 92
e 48 98
e 48 135
e 48 160
e 48 163
e 48 171
e 48 194
e 48 195
e 48 198
e 48 224
e 48 225
e 48 228
e 48 233
e 49 50
e 49 57
e 49 83
e 49 84
e 49 96
e 49 103
e 49 120
e 49 121
e 49 128
e 49 133
e 49 167
e 49 192
e 49 211
e 49 216
e 49 228
e 49 239
e 50 64
e 50 70
e 50 73
e 50 80
e 50 88
e 50 92
e 50 96
e 50 112
e 50 114
e 50 117
e 50 126
e 50 127
e 50 148
e 50 154
e 50 165
e 50 177
e 50 194
e 50 207
e 50 233
e 50 239
e 50 242
e 50 249
e 51 62
e 51 64
e 51 65
e 51 107
e 51 110
e 51 112
e 51 117
e 51 119
e 51 130
e 51 134
e 51 154
e 51 156
e 51 161
e 51 162
e 51 189
e 51 203
e 51 207
e 51 215
e 51 216
e 51 228
e 51 235
e 51 249
e 52 56
e 52 58
e 52 68
e 52 72
e 52 117
e 52 153
e 52 164
e 52 171
e 52 175
e 52 176
e 52 181
e 52 192
e 52 196
e 52 197
e 52 210
e 52 211
e 52 220
e 52 221
e 52 234
e 52 239
e 52 246
e 53 56
e 53 62
e 53 63
e 53 76
e 53 82
e 53 102
e 53 111
e 53 122
e 53 123
e 53 135
e 53 150
e 53 152
e 53 153
e 53 157
e 53 169
e 53 171
e 53 191
e 53 194
e 53 196
e 53 204
e 53 217
e 53 221
e 53 225
e 53 230
e 53 231
e 53 234
e 54 61
e 54 73
e 54 82
e 54 86
e 54 104
e 54 112
e 54 119
e 54 144
e 54 145
e 54 172
e 54 173
e 54 176
e 54 177
e 54 178
e 54 184
e 54 198
e 54 200
e 54 201
e 54 232
e 54 235
e 54 239
e 55 60
e 55 63
e 55 70
e 55 84
e 55 99
e 55 114
e 55 116
e 55 122
e 55 127
e 55 130
e 55 131
e 55 140
e 55 145
e 55 148
e 55 166
e 55 184
e 55 206
e 55 211
e 55 231
e 55 236
e 55 237
e 55 245
e 56 68
e 56 82
e 56 95
e 56 114
e 56 152
e 56 154
e 56 158
e 56 159
e 56 162
e 56 169
e 56 171
e 56 181
e 56 183
e 56 214
e 56 220
e 56 239
e 56 241
e 56 247
e 57 66
e 57 70
e 57 80
e 57 109
e 57 112
e 57 116
e 57 122
e 57 128
e 57 129
e 57 134
e 57 148
e 57 149
e 57 154
e 57 161
e 57 162
e 57 178
e 57 208
e 57 219
e 57 234
e 57 240
e 57 245
e 57 249
e 58 65
e 58 76
e 58 81
e 58 84
e 58 98
e 58 104
e 58 105
e 58 114
e 58 118
e 58 122
e 58 124
e 58 127
e 58 135
e 58 145
e 58 151
e 58 153
e 58 164
e 58 180
e 58 181
e 58 183
e 58 189
e 58 196
e 58 201
e 58 212
e 58 242
e 58 247
e 59 76
e 59 78
e 59 86
e 59 95
e 59 105
e 59 109
e 59 115
e 59 118
e 59 128
e 59 130
e 59 141
e 59 153
e 59 163
e 59 170
e 59 181
e 59 197
e 59 219
e 59 232
e 60 61
e 60 64
e 60 70
e 60 80
e 60 84
e 60 89
e 60 93
e 60 100
e 60 104
e 60 119
e 60 139
e 60 175
e 60 179
e 60 180
e 60 217
e 60 219
e 60 225
e 60 243
e 60 245
e 61 63
e 61 77
e 61 89
e 61 106
e 61 109
e 61 117
e 61 124
e 61 126
e 61 130
e 61 145
e 61 156
e 61 168
e 61 184
e 61 186
e 61 193
e 61 213
e 61 229
e 62 82
e 62 86
e 62 90
e 62 98
e 62 99
e 62 100
e 62 122
e 62 157
e 62 211
e 62 213
e 62 219
e 62 232
e 62 236
e 62 243
e 63 65
e 63 85
e 63 90
e 63 91
e 63 128
e 63 129
e 63 130
e 63 147
e 63 155
e 63 157
e 63 198
e 63 199
e 63 202
e 63 218
e 64 69
e 64 70
e 64 75
e 64 83
e 64 93
e 64 94
e 64 102
e 64 149
e 64 163
e 64 170
e 64 175
e 64 194
e 64 202
e 64 219
e 65 75
e 65 77
e 65 93
e 65 99
e 65 103
e 65 104
e 65 109
e 65 114
e 65 136
e 65 151
e 65 152
e 65 160
e 65 162
e 65 171
e 65 176
e 65 178
e 65 179
e 65 182
e 65 189
e 65 197
e 65 202
e 65 214
e 65 226
e 65 232
e 66 81
e 66 87
e 66 98
e 66 106
e 66 108
e 66 118
e 66 127
e 66 130
e 66 133
e 66 135
e 66 153
e 66 177
e 66 178
e 66 184
e 66 208
e 66 217
e 66 226
e 66 228
e 66 239
e 66 246
e 67 79
e 67 93
e 67 96
e 67 124
e 67 146
e 67 147
e 67 171
e 67 182
e 67 184
e 67 192
e 67 199
e 67 200
e 67 204
e 67 214
e 67 225
e 67 244
e 68 77
e 68 79
e 68 104
e 68 128
e 68 148
e 68 150
e 68 168
e 68 179
e 68 192
e 68 193
e 68 213
e 68 228
e 68 229
e 68 233
e 68 248
e 69 84
e 69 106
e 69 114
e 69 180
e 69 186
e 69 199
e 69 230
e 70 81
e 70 93
e 70 103
e 70 109
e 70 125
e 70 127
e 70 128
e 70 137
e 70 138
e 70 141
e 70 145
e 70 203
e 70 204
e 70 210
e 70 213
e 70 214
e 70 219
e 70 227
e 70 246
e 71 78
e 71 83
e 71 96
e 71 103
e 71 113
e 71 114
e 71 117
e 71 149
e 71 171
e 71 180
e 71 186
e 71 197
e 71 221
e 71 226
e 71 227
e 71 243
e 72 73
e 72 80
e 72 82
e 72 83
e 72 87
e 72 98
e 72 100
e 72 135
e 72 138
e 72 146
e 72 156
e 72 182
e 72 193
e 72 202
e 72 208
e 72 221
e 73 75
e 73 81
e 73 86
e 73 107
e 73 111
e 73 112
e 73 114
e 73 122
e 73 136
e 73 140
e 73 145
e 73 190
e 73 209
e 73 221
e 73 222
e 73 225
e 73 230
e 73 238
e 73 241
e 74 75
e 74 78
e 74 81
e 74 93
e 74 100
e 74 110
e 74 115
e 74 117
e 74 123
e 74 124
e 74 131
e 74 151
e 74 173
e 74 181
e 74 184
e 74 186
e 74 188
e 74 196
e 74 206
e 74 211
e 74 223
e 74 228
e 74 232
e 74 248
e 75 79
e 75 92
e 75 98
e 75 114
e 75 128
e 75 133
e 75 149
e 75 179
e 75 187
e 75 234
e 75 241
e 75 244
e 76 83
e 76 86
e 76 94
e 76 98
e 76 129
e 76 135
e 76 146
e 76 175
e 76 178
e 76 184
e 76 218
e 76 220
e 76 225
e 76 246
e 77 78
e 77 83
e 77 84
e 77 86
e 77 87
e 77 96
e 77 98
e 77 115
e 77 124
e 77 142
e 77 155
e 77 162
e 77 171
e 77 174
e 77 175
e 77 179
e 77 185
e 77 186
e 77 187
e 77 196
e 77 203
e 77 208
e 77 210
e 77 212
e 77 227
e 77 228
e 77 230
e 77 239
e 77 241
e 77 247
e 77 248
e 78 80
e 78 97
e 78 132
e 78 136
e 78 139
e 78 154
e 78 169
e 78 173
e 78 180
e 78 198
e 78 205
e 78 215
e 79 83
e 79 101
e 79 104
e 79 111
e 79 112
e 79 124
e 79 150
e 79 164
e 79 167
e 79 190
e 79 193
e 79 194
e 79 204
e 79 208
e 79 210
e 79 228
e 79 229
e 79 239
e 79 242
e 79 244
e 80 95
e 80 101
e 80 103
e 80 114
e 80 121
e 80 138
e 80 140
e 80 157
e 80 160
e 80 174
e 80 183
e 80 190
e 80 206
e 80 216
e 80 217
e 81 91
e 81 95
e 81 99
e 81 102
e 81 108
e 81 139
e 81 149
e 81 153
e 81 166
e 81 180
e 81 181
e 81 212
e 81 221
e 81 223
e 81 242
e 81 246
e 82 88
e 82 99
e 82 103
e 82 107
e 82 139
e 82 150
e 82 177
e 82 183
e 82 184
e 82 189
e 82 191
e 82 205
e 82 213
e 82 217
e 82 231
e 83 86
e 83 88
e 83 96
e 83 103
e 83 116
e 83 135
e 83 138
e 83 163
e 83 173
e 83 183
e 83 206
e 83 236
e 83 237
e 84 95
e 84 97
e 84 110
e 84 113
e 84 118
e 84 125
e 84 131
e 84 134
e 84 147
e 84 156
e 84 174
e 84 186
e 84 193
e 84 198
e 84 200
e 84 217
e 84 221
e 84 228
e 84 230
e 84 234
e 84 239
e 84 242
e 85 86
e 85 88
e 85 89
e 85 94
e 85 105
e 85 115
e 85 152
e 85 182
e 85 196
e 85 200
e 85 201
e 85 232
e 85 234
e 85 248
e 86 88
e 86 89
e 86 101
e 86 104
e 86 106
e 86 135
e 86 136
e 86 153
e 86 171
e 86 186
e 86 188
e 86 191
e 86 192
e 86 196
e 86 214
e 86 216
e 86 242
e 86 244
e 87 93
e 87 114
e 87 126
e 87 131
e 87 136
e 87 146
e 87 151
e 87 156
e 87 158
e 87 179
e 87 180
e 87 197
e 87 215
e 87 219
e 87 222
e 87 227
e 87 232
e 87 239
e 87 243
e 87 245
e 88 107
e 88 110
e 88 111
e 88 125
e 88 166
e 88 168
e 88 170
e 88 177
e 88 187
e 88 188
e 88 190
e 88 198
e 88 199
e 88 210
e 88 234
e 88 237
e 89 98
e 89 103
e 89 123
e 89 137
e 89 143
e 89 166
e 89 175
e 89 179
e 89 193
e 89 211
e 89 219
e 89 222
e 89 229
e 89 237
e 90 127
e 90 143
e 90 151
e 90 201
e 90 202
e 90 203
e 90 204
e 90 231
e 90 238
e 90 239
e 90 246
e 91 99
e 91 106
e 91 122
e 91 128
e 91 131
e 91 140
e 91 148
e 91 156
e 91 161
e 91 164
e 91 169
e 91 175
e 91 184
e 91 191
e 91 194
e 91 214
e 91 222
e 91 223
e 91 229
e 92 99
e 92 104
e 92 105
e 92 108
e 92 122
e 92 147
e 92 155
e 92 166
e 92 167
e 92 176
e 92 179
e 92 190
e 92 193
e 92 211
e 92 215
e 92 243
e 92 248
e 93 95
e 93 117
e 93 123
e 93 126
e 93 139
e 93 146
e 93 152
e 93 167
e 93 172
e 93 197
e 93 203
e 93 205
e 93 230
e 93 232
e 93 237
e 93 242
e 94 107
e 94 109
e 94 116
e 94 125
e 94 126
e 94 128
e 94 131
e 94 147
e 94 161
e 94 162
e 94 176
e 94 189
e 94 193
e 94 196
e 94 207
e 94 224
e 94 230
e 94 233
e 95 96
e 95 97
e 95 121
e 95 133
e 95 136
e 95 152
e 95 157
e 95 166
e 95 169
e 95 175
e 95 176
e 95 177
e 95 189
e 95 214
e 95 219
e 95 225
e 95 226
e 95 229
e 95 238
e 95 244
e 96 102
e 96 105
e 96 106
e 96 108
e 96 118
e 96 121
e 96 127
e 96 135
e 96 166
e 96 168
e 96 169
e 96 171
e 96 172
e 96 188
e 96 194
e 96 206
e 96 207
e 96 218
e 96 221
e 96 239
e 96 240
e 97 99
e 97 101
e 97 105
e 97 116
e 97 118
e 97 125
e 97 146
e 97 171
e 97 178
e 97 182
e 97 187
e 97 192
e 97 212
e 97 216
e 97 217
e 98 148
e 98 150
e 98 163
e 98 165
e 98 178
e 98 186
e 98 201
e 98 213
e 98 227
e 98 236
e 98 237
e 98 245
e 99 117
e 99 124
e 99 125
e 99 143
e 99 149
e 99 158
e 99 178
e 99 180
e 99 193
e 99 209
e 99 211
e 99 216
e 99 223
e 99 228
e 100 107
e 100 108
e 100 110
e 100 111
e 100 121
e 100 149
e 100 153
e 100 165
e 100 166
e 100 180
e 100 194
e 100 201
e 100 216
e 100 234
e 100 236
e 100 244
e 100 245
e 101 117
e 101 119
e 101 120
e 101 132
e 101 140
e 101 147
e 101 176
e 101 203
e 101 209
e 101 247
e 101 249
e 102 108
e 102 110
e 102 112
e 102 127
e 102 157
e 102 159
e 102 168
e 102 183
e 102 201
e 102 204
e 102 207
e 102 209
e 102 217
e 102 232
e 102 234
e 103 109
e 103 130
e 103 133
e 103 149
e 103 151
e 103 177
e 103 193
e 103 212
e 103 216
e 103 233
e 104 107
e 104 110
e 104 125
e 104 138
e 104 144
e 104 147
e 104 164
e 104 166
e 104 185
e 104 189
e 104 192
e 104 199
e 104 201
e 104 205
e 104 209
e 104 218
e 104 223
e 104 225
e 104 236
e 104 237
e 104 240
e 105 109
e 105 117
e 105 143
e 105 145
e 105 153
e 105 171
e 105 175
e 105 184
e 105 193
e 105 194
e 105 198
e 105 206
e 105 207
e 105 208
e 105 216
e 106 112
e 106 115
e 106 123
e 106 128
e 106 131
e 106 135
e 106 136
e 106 153
e 106 156
e 106 161
e 106 162
e 106 168
e 106 171
e 106 173
e 106 180
e 106 191
e 106 197
e 106 204
e 106 216
e 107 114
e 107 116
e 107 134
e 107 140
e 107 145
e 107 148
e 107 158
e 107 180
e 107 196
e 107 222
e 107 230
e 107 239
e 108 114
e 108 124
e 108 126
e 108 127
e 108 128
e 108 133
e 108 134
e 108 136
e 108 153
e 108 158
e 108 161
e 108 165
e 108 185
e 108 205
e 108 207
e 108 208
e 108 221
e 108 225
e 108 227
e 108 231
e 108 234
e 108 249
e 109 118
e 109 122
e 109 133
e 109 137
e 109 142
e 109 152
e 109 154
e 109 168
e 109 175
e 109 186
e 109 198
e 109 199
e 109 211
e 109 238
e 109 240
e 109 249
e 110 115
e 110 140
e 110 153
e 110 156
e 110 167
e 110 170
e 110 184
e 110 194
e 110 195
e 110 199
e 110 215
e 110 232
e 111 112
e 111 129
e 111 131
e 111 140
e 111 157
e 111 159
e 111 162
e 111 166
e 111 183
e 111 192
e 111 204
e 111 223
e 111 225
e 111 238
e 112 136
e 112 137
e 112 138
e 112 157
e 112 161
e 112 178
e 112 179
e 112 191
e 112 204
e 112 215
e 112 216
e 112 220
e 112 225
e 112 231
e 112 237
e 112 241
e 113 139
e 113 142
e 113 172
e 113 173
e 113 194
e 113 206
e 113 219
e 113 221
e 113 235
e 113 247
e 114 121
e 114 136
e 114 154
e 114 156
e 114 173
e 114 178
e 114 182
e 114 215
e 114 222
e 114 237
e 115 117
e 115 120
e 115 131
e 115 142
e 115 151
e 115 169
e 115 174
e 115 178
e 115 184
e 115 185
e 115 188
e 115 225
e 116 119
e 116 124
e 116 127
e 116 131
e 116 136
e 116 142
e 116 144
e 116 150
e 116 158
e 116 164
e 116 194
e 116 206
e 116 228
e 117 126
e 117 170
e 117 189
e 117 196
e 117 201
e 117 203
e 117 209
e 117 219
e 117 221
e 117 229
e 117 233
e 117 241
e 118 121
e 118 124
e 118 129
e 118 133
e 118 150
e 118 152
e 118 153
e 118 183
e 118 184
e 118 185
e 118 198
e 118 215
e 118 217
e 118 220
e 118 224
e 118 232
e 118 243
e 119 169
e 119 175
e 119 179
e 119 183
e 119 206
e 119 208
e 119 211
e 119 244
e 120 141
e 120 144
e 120 147
e 120 167
e 120 169
e 120 178
e 120 181
e 120 187
e 120 188
e 120 195
e 120 199
e 120 212
e 120 230
e 120 233
e 121 122
e 121 131
e 121 140
e 121 144
e 121 150
e 121 151
e 121 165
e 121 174
e 121 175
e 121 177
e 121 204
e 121 209
e 121 233
e 121 234
e 121 235
e 121 244
e 122 126
e 122 138
e 122 147
e 122 160
e 122 173
e 122 175
e 122 185
e 122 189
e 122 193
e 122 203
e 122 205
e 122 206
e 122 215
e 122 227
e 122 233
e 123 137
e 123 143
e 123 148
e 123 150
e 123 158
e 123 162
e 123 184
e 123 192
e 123 214
e 123 218
e 123 226
e 123 235
e 123 237
e 123 240
e 123 245
e 124 133
e 124 148
e 124 154
e 124 159
e 124 163
e 124 165
e 124 170
e 124 176
e 124 183
e 124 187
e 124 193
e 124 205
e 124 209
e 124 211
e 124 216
e 124 228
e 125 136
e 125 148
e 125 157
e 125 169
e 125 170
e 125 188
e 125 190
e 125 197
e 125 200
e 125 205
e 125 234
e 125 237
e 126 136
e 126 138
e 126 147
e 126 151
e 126 153
e 126 155
e 126 158
e 126 160
e 126 175
e 126 182
e 126 200
e 126 205
e 126 220
e 126 241
e 126 245
e 127 131
e 127 139
e 127 149
e 127 179
e 127 205
e 127 213
e 127 215
e 127 218
e 127 221
e 127 232
e 127 238
e 127 247
e 128 137
e 128 142
e 128 158
e 128 175
e 128 190
e 128 193
e 128 199
e 128 207
e 128 217
e 128 229
e 128 246
e 129 131
e 129 137
e 129 159
e 129 162
e 129 167
e 129 169
e 129 189
e 129 191
e 129 194
e 129 206
e 129 213
e 129 220
e 129 235
e 129 244
e 129 246
e 130 155
e 130 171
e 130 175
e 130 180
e 130 200
e 130 204
e 130 207
e 130 218
e 130 223
e 130 229
e 130 238
e 130 244
e 131 142
e 131 152
e 131 159
e 131 163
e 131 193
e 131 227
e 131 244
e 132 147
e 132 155
e 132 176
e 132 191
e 132 229
e 132 237
e 132 242
e 133 136
e 133 140
e 133 167
e 133 191
e 133 194
e 133 198
e 133 207
e 133 226
e 133 227
e 133 231
e 133 237
e 133 238
e 133 244
e 134 138
e 134 161
e 134 163
e 134 164
e 134 171
e 134 187
e 134 207
e 134 208
e 134 214
e 134 225
e 134 229
e 134 239
e 135 144
e 135 145
e 135 151
e 135 159
e 135 163
e 135 169
e 135 175
e 135 176
e 135 192
e 135 193
e 135 199
e 135 200
e 135 201
e 135 203
e 135 209
e 135 213
e 135 218
e 136 155
e 136 158
e 136 190
e 136 191
e 136 195
e 136 199
e 136 207
e 137 167
e 137 177
e 137 194
e 137 204
e 137 241
e 137 249
e 138 141
e 138 148
e 138 162
e 138 163
e 138 171
e 138 187
e 138 188
e 138 192
e 138 210
e 138 211
e 138 226
e 138 228
e 138 232
e 138 242
e 139 161
e 139 171
e 139 184
e 139 185
e 139 212
e 139 244
e 139 246
e 140 153
e 140 154
e 140 170
e 140 178
e 140 183
e 140 185
e 140 186
e 140 191
e 140 195
e 140 223
e 140 227
e 140 242
e 140 243
e 140 244
e 141 175
e 141 207
e 141 216
e 141 224
e 141 234
e 142 143
e 142 150
e 142 187
e 142 194
e 142 205
e 142 225
e 142 231
e 143 150
e 143 151
e 143 169
e 143 171
e 143 177
e 143 181
e 143 196
e 143 211
e 143 212
e 143 229
e 144 145
e 144 155
e 144 175
e 144 209
e 144 213
e 144 223
e 144 239
e 145 160
e 145 168
e 145 188
e 145 207
e 145 216
e 145 226
e 146 214
e 146 217
e 146 223
e 146 227
e 146 234
e 147 158
e 147 176
e 147 178
e 147 185
e 147 188
e 147 197
e 147 206
e 147 228
e 147 236
e 148 169
e 148 184
e 148 188
e 148 200
e 148 201
e 148 203
e 148 218
e 148 240
e 149 155
e 149 160
e 149 169
e 149 181
e 149 205
e 149 219
e 149 224
e 149 238
e 149 248
e 150 157
e 150 163
e 150 171
e 150 179
e 150 187
e 150 207
e 150 215
e 150 221
e 150 223
e 150 228
e 150 235
e 150 244
e 151 160
e 151 161
e 151 169
e 151 178
e 151 180
e 151 187
e 151 195
e 151 209
e 151 227
e 151 237
e 152 217
e 152 233
e 153 159
e 153 161
e 153 170
e 153 173
e 153 179
e 153 180
e 153 195
e 153 200
e 153 230
e 153 242
e 154 182
e 154 186
e 154 187
e 154 188
e 154 192
e 154 205
e 154 218
e 154 219
e 154 224
e 154 230
e 154 243
e 155 157
e 155 170
e 155 173
e 155 183
e 155 190
e 155 198
e 155 199
e 155 209
e 155 216
e 155 217
e 155 218
e 155 233
e 155 234
e 155 235
e 156 178
e 156 184
e 156 192
e 156 206
e 156 211
e 156 213
e 156 216
e 157 184
e 157 202
e 157 208
e 157 226
e 158 175
e 158 189
e 158 200
e 158 202
e 158 213
e 158 218
e 158 222
e 159 162
e 159 177
e 159 181
e 159 189
e 159 193
e 159 201
e 159 218
e 159 229
e 159 232
e 159 234
e 159 242
e 160 161
e 160 187
e 160 190
e 160 208
e 160 214
e 160 223
e 161 190
e 161 202
e 161 215
e 161 220
e 161 234
e 161 237
e 161 238
e 161 244
e 162 211
e 162 212
e 162 213
e 162 222
e 162 230
e 162 242
e 162 245
e 162 248
e 163 166
e 163 167
e 163 178
e 163 181
e 163 192
e 163 197
e 163 207
e 163 208
e 163 213
e 163 230
e 163 233
e 163 242
e 164 187
e 164 189
e 164 190
e 164 202
e 164 212
e 164 214
e 164 217
e 164 220
e 164 224
e 164 235
e 164 240
e 164 241
e 165 173
e 165 182
e 165 188
e 165 191
e 165 192
e 165 201
e 165 202
e 165 210
e 165 219
e 165 227
e 165 232
e 165 235
e 166 172
e 166 188
e 166 198
e 166 217
e 166 230
e 166 238
e 166 239
e 167 181
e 167 190
e 167 205
e 167 208
e 167 231
e 168 181
e 168 185
e 168 188
e 168 193
e 168 198
e 168 213
e 168 231
e 168 240
e 168 248
e 169 191
e 169 205
e 169 215
e 169 223
e 169 232
e 169 234
e 169 235
e 169 244
e 169 245
e 170 172
e 170 182
e 170 194
e 170 196
e 170 204
e 170 222
e 170 229
e 170 235
e 170 237
e 171 183
e 171 191
e 171 210
e 171 236
e 171 237
e 172 178
e 172 182
e 172 188
e 172 199
e 172 201
e 172 215
e 172 227
e 172 230
e 172 233
e 172 235
e 172 237
e 172 242
e 172 243
e 172 247
e 173 188
e 173 193
e 173 200
e 173 201
e 173 226
e 173 232
e 174 176
e 174 178
e 174 179
e 174 193
e 174 196
e 174 197
e 174 221
e 174 222
e 175 177
e 175 192
e 175 195
e 175 207
e 175 210
e 175 211
e 175 220
e 175 221
e 175 232
e 175 244
e 175 246
e 176 185
e 176 194
e 176 205
e 176 211
e 176 230
e 176 231
e 176 235
e 176 249
e 177 182
e 177 195
e 177 198
e 177 211
e 177 212
e 177 226
e 177 229
e 177 232
e 177 233
e 177 237
e 177 243
e 177 244
e 178 186
e 178 187
e 178 194
e 178 196
e 178 209
e 178 229
e 178 232
e 179 207
e 179 224
e 179 229
e 179 243
e 180 185
e 180 196
e 180 197
e 180 198
e 180 204
e 180 222
e 180 230
e 180 232
e 180 243
e 181 182
e 181 189
e 181 197
e 181 211
e 181 220
e 181 232
e 181 239
e 181 247
e 181 248
e 182 187
e 182 188
e 182 190
e 182 213
e 182 220
e 182 224
e 182 232
e 182 236
e 182 245
e 182 246
e 182 248
e 183 201
e 183 219
e 183 222
e 183 226
e 183 227
e 183 228
e 183 230
e 183 234
e 183 243
e 183 246
e 184 199
e 184 201
e 184 233
e 184 241
e 184 243
e 184 249
e 185 197
e 185 209
e 185 215
e 185 220
e 185 224
e 185 228
e 185 248
e 186 215
e 186 224
e 186 229
e 186 233
e 186 240
e 186 243
e 187 204
e 187 228
e 187 249
e 188 189
e 188 200
e 188 205
e 188 206
e 188 207
e 188 213
e 188 216
e 188 217
e 188 227
e 188 248
e 189 193
e 190 197
e 190 227
e 190 230
e 190 247
e 191 207
e 191 220
e 191 232
e 191 233
e 191 241
e 192 210
e 192 222
e 192 233
e 192 235
e 193 194
e 193 214
e 193 220
e 193 230
e 193 239
e 194 221
e 194 226
e 194 238
e 194 243
e 195 201
e 195 222
e 195 243
e 195 248
e 196 217
e 196 226
e 196 232
e 196 241
e 197 209
e 197 214
e 197 235
e 197 244
e 198 226
e 198 231
e 198 232
e 198 239
e 199 211
e 199 216
e 199 218
e 199 224
e 199 242
e 199 245
e 200 229
e 200 242
e 201 204
e 201 212
e 201 239
e 201 248
e 202 209
e 202 214
e 202 222
e 202 236
e 202 239
e 202 241
e 203 208
e 203 212
e 203 247
e 204 206
e 204 213
e 204 219
e 204 234
e 205 220
e 205 225
e 205 228
e 205 232
e 206 211
e 206 213
e 206 215
e 206 230
e 206 231
e 206 232
e 207 214
e 207 231
e 207 234
e 207 237
e 208 214
e 208 221
e 208 226
e 208 228
e 208 232
e 208 248
e 208 249
e 209 217
e 209 221
e 209 223
e 209 233
e 209 238
e 209 241
e 210 214
e 210 219
e 210 222
e 210 249
e 211 215
e 211 232
e 212 245
e 213 228
e 213 234
e 213 238
e 213 245
e 213 246
e 214 217
e 214 228
e 214 231
e 215 223
e 215 224
e 215 231
e 215 234
e 216 227
e 216 230
e 216 231
e 216 237
e 216 238
e 216 240
e 217 221
e 217 227
e 217 232
e 217 246
e 217 249
e 218 228
e 218 241
e 218 249
e 219 223
e 219 234
e 220 237
e 220 243
e 220 249
e 221 222
e 221 224
e 221 225
e 221 237
e 222 228
e 222 246
e 222 249
e 224 233
e 224 247
e 225 226
e 225 228
e 226 234
e 227 236
e 228 230
e 228 232
e 228 235
e 229 231
e 229 241
e 230 238
e 230 245
e 230 246
e 231 235
e 231 236
e 231 239
e 231 244
e 232 247
e 233 242
e 233 246
e 234 242
e 235 236
e 236 241
e 237 242
e 237 249
e 238 243
e 239 244
e 239 247
e 241 245
e 241 246
e 243 247
e 245 247
e 247 249
e 248 249
